1111100 AB red
315
1111100 AB green
350
1111100 BA
315 349 368 386 404 421 434 442 450 458 466 474 482 492 501 510 519 529 539 548 557 566 575 585 595 606 617 628 640 652 664 676 688 700 712 724 736 746 756 766 776 787 799 811 823 835 844 853 862 871 880 890 900 910 920 929 938 947 956 969 975 984 994 1004 1014 1027 1041 1050 1058 1066 1074 1082 1091 1100 1109 1117 1126 1142 1159 1178 1195 1210 1233 1260 1278 1296 1314 1335 1359 1384 1403 1422 1
0000011 AB red
315
0000011 AB green
350
0000011 BA
315 350 383 409 436 463 490 1077 1095 1114 1135 1155 1175 1192 1209 1229 1249 1270 1289 1314 1340 1370 1395 1422 5
0000011 BA red
520 549 571 591 611 631 651 671 691 710 725 740 756 772 788 804 825 846 862 878 895 912 929 946 962 978 999 1019 1039 1058
